NAME : Rajasthan_Tourism
COMMENT : Important tourist locations in Rajasthan
TYPE : TSP
DIMENSION : 20
EDGE_WEIGHT_TYPE : EUC_2D
NODE_COORD_SECTION
1 26.9124 75.7873   % Jaipur
2 24.5854 73.7125   % Udaipur
3 26.2389 73.0243   % Jodhpur
4 26.9124 70.9160   % Jaisalmer
5 26.4853 74.5506   % Ajmer
6 26.4520 74.6399   % Pushkar
7 28.0222 73.3104   % Bikaner
8 24.8790 74.6320   % Chittorgarh
9 26.0173 76.3685   % Bundi
10 24.5926 72.7022  % Mount Abu
11 27.7367 76.4288  % Alwar
12 26.9934 75.8262  % Jaipur (outskirts)
13 24.5854 73.7125  % Udaipur (duplicate)
14 26.2389 73.0243  % Jodhpur (duplicate)
15 26.9124 70.9160  % Jaisalmer (duplicate)
16 26.9160 70.9161  % Jaisalmer (slightly different coord)
17 26.9272 75.8184  % Sanganer (near Jaipur)
18 24.6758 73.3090  % Kumbhalgarh
19 24.5854 73.7125  % Udaipur (duplicate)
20 27.8619 75.6143  % Shekhawati
EOF
